(declare-fun mem_c0080028_292_32 () (_ BitVec 32))
(declare-fun mem_7fffffffffef850_169_256 () (_ BitVec 256))
(declare-fun mem_c008002c_344_32 () (_ BitVec 32))
(assert (let ((a!1 (concat (concat (concat ((_ extract 31 31) mem_c0080028_292_32)
                                   ((_ extract 31 31) mem_c0080028_292_32))
                           ((_ extract 31 31) mem_c0080028_292_32))
                   ((_ extract 31 31) mem_c0080028_292_32)))
      (a!12 (concat (concat (concat ((_ extract 31 31) mem_c008002c_344_32)
                                    ((_ extract 31 31) mem_c008002c_344_32))
                            ((_ extract 31 31) mem_c008002c_344_32))
                    ((_ extract 31 31) mem_c008002c_344_32)))
      (a!23 (concat (concat (concat ((_ extract 135 128)
                                      mem_7fffffffffef850_169_256)
                                    ((_ extract 143 136)
                                      mem_7fffffffffef850_169_256))
                            ((_ extract 151 144) mem_7fffffffffef850_169_256))
                    ((_ extract 159 152) mem_7fffffffffef850_169_256))))
(let ((a!2 (concat (concat (concat a!1 ((_ extract 31 31) mem_c0080028_292_32))
                           ((_ extract 31 31) mem_c0080028_292_32))
                   ((_ extract 31 31) mem_c0080028_292_32)))
      (a!13 (concat (concat (concat a!12
                                    ((_ extract 31 31) mem_c008002c_344_32))
                            ((_ extract 31 31) mem_c008002c_344_32))
                    ((_ extract 31 31) mem_c008002c_344_32)))
      (a!24 (concat (concat (concat a!23
                                    ((_ extract 167 160)
                                      mem_7fffffffffef850_169_256))
                            ((_ extract 175 168) mem_7fffffffffef850_169_256))
                    ((_ extract 183 176) mem_7fffffffffef850_169_256))))
(let ((a!3 (concat (concat (concat a!2 ((_ extract 31 31) mem_c0080028_292_32))
                           ((_ extract 31 31) mem_c0080028_292_32))
                   ((_ extract 31 31) mem_c0080028_292_32)))
      (a!14 (concat (concat (concat a!13
                                    ((_ extract 31 31) mem_c008002c_344_32))
                            ((_ extract 31 31) mem_c008002c_344_32))
                    ((_ extract 31 31) mem_c008002c_344_32))))
(let ((a!4 (concat (concat (concat a!3 ((_ extract 31 31) mem_c0080028_292_32))
                           ((_ extract 31 31) mem_c0080028_292_32))
                   ((_ extract 31 31) mem_c0080028_292_32)))
      (a!15 (concat (concat (concat a!14
                                    ((_ extract 31 31) mem_c008002c_344_32))
                            ((_ extract 31 31) mem_c008002c_344_32))
                    ((_ extract 31 31) mem_c008002c_344_32))))
(let ((a!5 (concat (concat (concat a!4 ((_ extract 31 31) mem_c0080028_292_32))
                           ((_ extract 31 31) mem_c0080028_292_32))
                   ((_ extract 31 31) mem_c0080028_292_32)))
      (a!16 (concat (concat (concat a!15
                                    ((_ extract 31 31) mem_c008002c_344_32))
                            ((_ extract 31 31) mem_c008002c_344_32))
                    ((_ extract 31 31) mem_c008002c_344_32))))
(let ((a!6 (concat (concat (concat a!5 ((_ extract 31 31) mem_c0080028_292_32))
                           ((_ extract 31 31) mem_c0080028_292_32))
                   ((_ extract 31 31) mem_c0080028_292_32)))
      (a!17 (concat (concat (concat a!16
                                    ((_ extract 31 31) mem_c008002c_344_32))
                            ((_ extract 31 31) mem_c008002c_344_32))
                    ((_ extract 31 31) mem_c008002c_344_32))))
(let ((a!7 (concat (concat (concat a!6 ((_ extract 31 31) mem_c0080028_292_32))
                           ((_ extract 31 31) mem_c0080028_292_32))
                   ((_ extract 31 31) mem_c0080028_292_32)))
      (a!18 (concat (concat (concat a!17
                                    ((_ extract 31 31) mem_c008002c_344_32))
                            ((_ extract 31 31) mem_c008002c_344_32))
                    ((_ extract 31 31) mem_c008002c_344_32))))
(let ((a!8 (concat (concat (concat a!7 ((_ extract 31 31) mem_c0080028_292_32))
                           ((_ extract 31 31) mem_c0080028_292_32))
                   ((_ extract 31 31) mem_c0080028_292_32)))
      (a!19 (concat (concat (concat a!18
                                    ((_ extract 31 31) mem_c008002c_344_32))
                            ((_ extract 31 31) mem_c008002c_344_32))
                    ((_ extract 31 31) mem_c008002c_344_32))))
(let ((a!9 (concat (concat (concat a!8 ((_ extract 31 31) mem_c0080028_292_32))
                           ((_ extract 31 31) mem_c0080028_292_32))
                   ((_ extract 31 31) mem_c0080028_292_32)))
      (a!20 (concat (concat (concat a!19
                                    ((_ extract 31 31) mem_c008002c_344_32))
                            ((_ extract 31 31) mem_c008002c_344_32))
                    ((_ extract 31 31) mem_c008002c_344_32))))
(let ((a!10 (concat (concat (concat a!9 ((_ extract 31 31) mem_c0080028_292_32))
                            ((_ extract 31 31) mem_c0080028_292_32))
                    mem_c0080028_292_32))
      (a!21 (concat (concat (concat a!20
                                    ((_ extract 31 31) mem_c008002c_344_32))
                            ((_ extract 31 31) mem_c008002c_344_32))
                    ((_ extract 31 31) mem_c008002c_344_32))))
(let ((a!11 (concat ((_ extract 63 4)
                      (bvadd #x000000000000000f (concat a!10 #b00)))
                    #x0)))
(let ((a!22 (bvadd #x0000000000000078
                   a!11
                   (concat (concat a!21 ((_ extract 31 31) mem_c008002c_344_32))
                           mem_c008002c_344_32))))
  (and (bvule a!22
              (concat a!24 ((_ extract 191 184) mem_7fffffffffef850_169_256)))
       (not (= #x00000000 mem_c0080028_292_32))))))))))))))))
(define-fun goal () (_ BitVec 64) (let ((a!1 ((_ zero_extend 32)
             ((_ extract 31 0)
               (bvurem #x00000000d1584701
                       ((_ zero_extend 32) mem_c0080028_292_32))))))
  (bvadd (bvshl a!1 #x0000000000000002) #x00000000c0080078))) 
(minimize goal)
(check-sat)